
50
105625

7144 6672
893 834
2679 2502
4465 4170
5358 5004
8037 7506
3572 3336
2682 7848
596 1744
7144 6672
1786 1668
3572 3336
1786 1668
3572 3336
1786 1668
1490 4360
894 2616
8930 8340
8930 8340
2679 2502
2086 6104
2980 8720
894 2616
596 1744
894 2616
8930 8340
2086 6104
1786 1668
2384 6976
2086 6104
2086 6104
596 1744
7144 6672
893 834
894 2616
298 872
5358 5004
894 2616
893 834
1192 3488
2679 2502
2980 8720
1490 4360
7144 6672
1786 1668
1192 3488
1788 5232
2086 6104
1490 4360
1490 4360
